model.mps
NAME MIQP_DNR
ROWS
 N  OBJ
 E  R0      
 E  R1      
 E  R2      
 E  R3      
 E  R4      
 E  R5      
 G  R6      
 G  R7      
 G  R8      
 G  R9      
 G  R10     
 G  R11     
 L  R12     
 L  R13     
 L  R14     
 L  R15     
 L  R16     
 L  R17     
 E  R18     
 L  R19     
 G  R20     
 G  R21     
COLUMNS
    C0(4)     R0        1
    C0(4)     R1        -1
    C0(4)     R6        -0.002
    C0(4)     R12       -0.002
    C1(4)     R3        1
    C1(4)     R4        -1
    C1(4)     R6        -0.002
    C1(4)     R12       -0.002
    C2(4)     OBJ       0.001
    C2(4)     R1        0.001
    C2(4)     R4        0.001
    C2(4)     R6        2e-06
    C2(4)     R12       2e-06
    C3(2)     R6        -10000
    C3(2)     R12       10000
    MARKER    'MARKER'                 'INTORG'
    B4(0)     OBJ       0
    MARKER    'MARKER'                 'INTEND'
    C5(4)     R0        1
    C5(4)     R2        -1
    C5(4)     R7        -0.002
    C5(4)     R13       -0.002
    C6(4)     R3        1
    C6(4)     R5        -1
    C6(4)     R7        -0.002
    C6(4)     R13       -0.002
    C7(4)     OBJ       0.001
    C7(4)     R2        0.001
    C7(4)     R5        0.001
    C7(4)     R7        2e-06
    C7(4)     R13       2e-06
    C8(2)     R7        -10000
    C8(2)     R13       10000
    MARKER    'MARKER'                 'INTORG'
    B9(0)     OBJ       0
    MARKER    'MARKER'                 'INTEND'
    C10(4)    R0        -1
    C10(4)    R1        1
    C10(4)    R8        -0.002
    C10(4)    R14       -0.002
    C11(4)    R3        -1
    C11(4)    R4        1
    C11(4)    R8        -0.002
    C11(4)    R14       -0.002
    C12(4)    OBJ       0.001
    C12(4)    R0        0.001
    C12(4)    R3        0.001
    C12(4)    R8        2e-06
    C12(4)    R14       2e-06
    C13(2)    R8        -10000
    C13(2)    R14       10000
    MARKER    'MARKER'                 'INTORG'
    B14(0)    OBJ       0
    MARKER    'MARKER'                 'INTEND'
    C15(4)    R0        -1
    C15(4)    R2        1
    C15(4)    R9        -0.002
    C15(4)    R15       -0.002
    C16(4)    R3        -1
    C16(4)    R5        1
    C16(4)    R9        -0.002
    C16(4)    R15       -0.002
    C17(4)    OBJ       0.001
    C17(4)    R0        0.001
    C17(4)    R3        0.001
    C17(4)    R9        2e-06
    C17(4)    R15       2e-06
    C18(2)    R9        -10000
    C18(2)    R15       10000
    MARKER    'MARKER'                 'INTORG'
    B19(0)    OBJ       0
    MARKER    'MARKER'                 'INTEND'
    C20(4)    R1        1
    C20(4)    R2        -1
    C20(4)    R10       -0.002
    C20(4)    R16       -0.002
    C21(4)    R4        1
    C21(4)    R5        -1
    C21(4)    R10       -0.002
    C21(4)    R16       -0.002
    C22(4)    OBJ       0.001
    C22(4)    R2        0.001
    C22(4)    R5        0.001
    C22(4)    R10       2e-06
    C22(4)    R16       2e-06
    C23(2)    R10       -10000
    C23(2)    R16       10000
    MARKER    'MARKER'                 'INTORG'
    B24(0)    OBJ       0
    MARKER    'MARKER'                 'INTEND'
    C25(4)    R1        -1
    C25(4)    R2        1
    C25(4)    R11       -0.002
    C25(4)    R17       -0.002
    C26(4)    R4        -1
    C26(4)    R5        1
    C26(4)    R11       -0.002
    C26(4)    R17       -0.002
    C27(4)    OBJ       0.001
    C27(4)    R1        0.001
    C27(4)    R4        0.001
    C27(4)    R11       2e-06
    C27(4)    R17       2e-06
    C28(2)    R11       -10000
    C28(2)    R17       10000
    MARKER    'MARKER'                 'INTORG'
    B29(0)    OBJ       0
    MARKER    'MARKER'                 'INTEND'
    C30(12)   R0        1
    C30(12)   R3        1
    C30(12)   R6        1
    C30(12)   R7        1
    C30(12)   R8        -1
    C30(12)   R9        -1
    C30(12)   R12       1
    C30(12)   R13       1
    C30(12)   R14       -1
    C30(12)   R15       -1
    C30(12)   R18       1
    C30(12)   R19       1
    C31(11)   R1        1
    C31(11)   R4        1
    C31(11)   R6        -1
    C31(11)   R8        1
    C31(11)   R10       1
    C31(11)   R11       -1
    C31(11)   R12       -1
    C31(11)   R14       1
    C31(11)   R16       1
    C31(11)   R17       -1
    C31(11)   R20       1
    C32(11)   R2        1
    C32(11)   R5        1
    C32(11)   R7        -1
    C32(11)   R9        1
    C32(11)   R10       -1
    C32(11)   R11       1
    C32(11)   R13       -1
    C32(11)   R15       1
    C32(11)   R16       -1
    C32(11)   R17       1
    C32(11)   R21       1
RHS
    RHS1      R0        2.2
    RHS1      R1        1
    RHS1      R2        1
    RHS1      R3        3
    RHS1      R4        1
    RHS1      R5        1
    RHS1      R6        -10000
    RHS1      R7        -10000
    RHS1      R8        -10000
    RHS1      R9        -10000
    RHS1      R10       -10000
    RHS1      R11       -10000
    RHS1      R12       10000
    RHS1      R13       10000
    RHS1      R14       10000
    RHS1      R15       10000
    RHS1      R16       10000
    RHS1      R17       10000
    RHS1      R18       1.03
    RHS1      R19       2
    RHS1      R20       0.4
    RHS1      R21       0.4
BOUNDS
 BV BND1      B4(0)   
 BV BND1      B9(0)   
 BV BND1      B14(0)  
 BV BND1      B19(0)  
 BV BND1      B24(0)  
 BV BND1      B29(0)  
ENDATA
